32      4       
18      12      14      18      
0       0       0       0       0       18      2       3       4       5       8       9       10      11      12      13      14      15      26      27      28      29      30      31      
10      4       0       1       0       4       24      18      17      7       
1       1       1       0       0       2       25      6       
3       4       4       0       0       2       19      16      
5       0       1       5       0       2       19      18      
5       6       0       0       7       1       17      
6       0       0       4       2       1       20      
2       1       0       0       10      1       16      
3       4       0       0       1       1       16      
6       4       1       0       0       1       16      
7       4       1       0       0       1       16      
6       6       0       6       0       1       23      
2       10      0       1       0       1       22      
3       0       7       0       1       1       21      
1       0       1       0       1       1       17      
7       0       0       1       6       1       32      
10      0       0       4       1       1       32      
5       0       2       0       1       1       32      
2       1       0       4       0       1       32      
10      0       1       5       0       1       32      
3       0       6       1       0       1       32      
5       0       6       0       10      1       32      
8       0       3       2       0       1       32      
10      3       0       0       7       1       32      
5       0       6       1       0       1       32      
6       0       1       9       0       1       32      
8       0       0       8       5       1       32      
5       0       4       0       9       1       32      
10      7       0       0       1       1       32      
2       12      0       1       0       1       32      
2       1       0       0       6       1       32      
0       0       0       0       0       0       
